c *********************************
c * Circuit generated by BenCGen
c *
c * CarrySkipAdder_29_29_29_InOut_G4T
c *
c * Ports with 1 gate(s): 11
c * Ports with 2 gate(s): 162
c * Ports with 4 gate(s): 7
c * Total gates: 180
c *********************************
p cnf 238 601
1 90 0
-1 -90 0
1 -89 0
90 -89 0
-1 -90 89 0
1 30 -93 0
-1 30 93 0
1 -30 93 0
-1 -30 -93 0
93 89 -59 0
-93 89 59 0
93 -89 59 0
-93 -89 -59 0
89 -94 0
93 -94 0
-89 -93 94 0
30 -95 0
1 -95 0
-30 -1 95 0
-94 92 0
-95 92 0
94 95 -92 0
2 31 -97 0
-2 31 97 0
2 -31 97 0
-2 -31 -97 0
97 92 -60 0
-97 92 60 0
97 -92 60 0
-97 -92 -60 0
92 -98 0
97 -98 0
-92 -97 98 0
31 -99 0
2 -99 0
-31 -2 99 0
-98 96 0
-99 96 0
98 99 -96 0
3 32 -101 0
-3 32 101 0
3 -32 101 0
-3 -32 -101 0
101 96 -61 0
-101 96 61 0
101 -96 61 0
-101 -96 -61 0
96 -102 0
101 -102 0
-96 -101 102 0
32 -103 0
3 -103 0
-32 -3 103 0
-102 100 0
-103 100 0
102 103 -100 0
4 33 -104 0
-4 33 104 0
4 -33 104 0
-4 -33 -104 0
104 100 -62 0
-104 100 62 0
104 -100 62 0
-104 -100 -62 0
100 -105 0
104 -105 0
-100 -104 105 0
33 -106 0
4 -106 0
-33 -4 106 0
-105 91 0
-106 91 0
105 106 -91 0
93 -107 0
97 -107 0
101 -107 0
104 -107 0
-93 -97 -101 -104 107 0
106 -108 0
-106 108 0
89 -109 0
107 -109 0
-89 -107 109 0
-109 110 0
-91 110 0
109 91 -110 0
5 34 -113 0
-5 34 113 0
5 -34 113 0
-5 -34 -113 0
113 110 -63 0
-113 110 63 0
113 -110 63 0
-113 -110 -63 0
110 -114 0
113 -114 0
-110 -113 114 0
34 -115 0
5 -115 0
-34 -5 115 0
-114 112 0
-115 112 0
114 115 -112 0
6 35 -117 0
-6 35 117 0
6 -35 117 0
-6 -35 -117 0
117 112 -64 0
-117 112 64 0
117 -112 64 0
-117 -112 -64 0
112 -118 0
117 -118 0
-112 -117 118 0
35 -119 0
6 -119 0
-35 -6 119 0
-118 116 0
-119 116 0
118 119 -116 0
7 36 -121 0
-7 36 121 0
7 -36 121 0
-7 -36 -121 0
121 116 -65 0
-121 116 65 0
121 -116 65 0
-121 -116 -65 0
116 -122 0
121 -122 0
-116 -121 122 0
36 -123 0
7 -123 0
-36 -7 123 0
-122 120 0
-123 120 0
122 123 -120 0
8 37 -124 0
-8 37 124 0
8 -37 124 0
-8 -37 -124 0
124 120 -66 0
-124 120 66 0
124 -120 66 0
-124 -120 -66 0
120 -125 0
124 -125 0
-120 -124 125 0
37 -126 0
8 -126 0
-37 -8 126 0
-125 111 0
-126 111 0
125 126 -111 0
113 -127 0
117 -127 0
121 -127 0
124 -127 0
-113 -117 -121 -124 127 0
126 -128 0
-126 128 0
110 -129 0
127 -129 0
-110 -127 129 0
-129 130 0
-111 130 0
129 111 -130 0
9 38 -133 0
-9 38 133 0
9 -38 133 0
-9 -38 -133 0
133 130 -67 0
-133 130 67 0
133 -130 67 0
-133 -130 -67 0
130 -134 0
133 -134 0
-130 -133 134 0
38 -135 0
9 -135 0
-38 -9 135 0
-134 132 0
-135 132 0
134 135 -132 0
10 39 -137 0
-10 39 137 0
10 -39 137 0
-10 -39 -137 0
137 132 -68 0
-137 132 68 0
137 -132 68 0
-137 -132 -68 0
132 -138 0
137 -138 0
-132 -137 138 0
39 -139 0
10 -139 0
-39 -10 139 0
-138 136 0
-139 136 0
138 139 -136 0
11 40 -141 0
-11 40 141 0
11 -40 141 0
-11 -40 -141 0
141 136 -69 0
-141 136 69 0
141 -136 69 0
-141 -136 -69 0
136 -142 0
141 -142 0
-136 -141 142 0
40 -143 0
11 -143 0
-40 -11 143 0
-142 140 0
-143 140 0
142 143 -140 0
12 41 -144 0
-12 41 144 0
12 -41 144 0
-12 -41 -144 0
144 140 -70 0
-144 140 70 0
144 -140 70 0
-144 -140 -70 0
140 -145 0
144 -145 0
-140 -144 145 0
41 -146 0
12 -146 0
-41 -12 146 0
-145 131 0
-146 131 0
145 146 -131 0
133 -147 0
137 -147 0
141 -147 0
144 -147 0
-133 -137 -141 -144 147 0
146 -148 0
-146 148 0
130 -149 0
147 -149 0
-130 -147 149 0
-149 150 0
-131 150 0
149 131 -150 0
13 42 -153 0
-13 42 153 0
13 -42 153 0
-13 -42 -153 0
153 150 -71 0
-153 150 71 0
153 -150 71 0
-153 -150 -71 0
150 -154 0
153 -154 0
-150 -153 154 0
42 -155 0
13 -155 0
-42 -13 155 0
-154 152 0
-155 152 0
154 155 -152 0
14 43 -157 0
-14 43 157 0
14 -43 157 0
-14 -43 -157 0
157 152 -72 0
-157 152 72 0
157 -152 72 0
-157 -152 -72 0
152 -158 0
157 -158 0
-152 -157 158 0
43 -159 0
14 -159 0
-43 -14 159 0
-158 156 0
-159 156 0
158 159 -156 0
15 44 -161 0
-15 44 161 0
15 -44 161 0
-15 -44 -161 0
161 156 -73 0
-161 156 73 0
161 -156 73 0
-161 -156 -73 0
156 -162 0
161 -162 0
-156 -161 162 0
44 -163 0
15 -163 0
-44 -15 163 0
-162 160 0
-163 160 0
162 163 -160 0
16 45 -164 0
-16 45 164 0
16 -45 164 0
-16 -45 -164 0
164 160 -74 0
-164 160 74 0
164 -160 74 0
-164 -160 -74 0
160 -165 0
164 -165 0
-160 -164 165 0
45 -166 0
16 -166 0
-45 -16 166 0
-165 151 0
-166 151 0
165 166 -151 0
153 -167 0
157 -167 0
161 -167 0
164 -167 0
-153 -157 -161 -164 167 0
166 -168 0
-166 168 0
150 -169 0
167 -169 0
-150 -167 169 0
-169 170 0
-151 170 0
169 151 -170 0
17 46 -173 0
-17 46 173 0
17 -46 173 0
-17 -46 -173 0
173 170 -75 0
-173 170 75 0
173 -170 75 0
-173 -170 -75 0
170 -174 0
173 -174 0
-170 -173 174 0
46 -175 0
17 -175 0
-46 -17 175 0
-174 172 0
-175 172 0
174 175 -172 0
18 47 -177 0
-18 47 177 0
18 -47 177 0
-18 -47 -177 0
177 172 -76 0
-177 172 76 0
177 -172 76 0
-177 -172 -76 0
172 -178 0
177 -178 0
-172 -177 178 0
47 -179 0
18 -179 0
-47 -18 179 0
-178 176 0
-179 176 0
178 179 -176 0
19 48 -181 0
-19 48 181 0
19 -48 181 0
-19 -48 -181 0
181 176 -77 0
-181 176 77 0
181 -176 77 0
-181 -176 -77 0
176 -182 0
181 -182 0
-176 -181 182 0
48 -183 0
19 -183 0
-48 -19 183 0
-182 180 0
-183 180 0
182 183 -180 0
20 49 -184 0
-20 49 184 0
20 -49 184 0
-20 -49 -184 0
184 180 -78 0
-184 180 78 0
184 -180 78 0
-184 -180 -78 0
180 -185 0
184 -185 0
-180 -184 185 0
49 -186 0
20 -186 0
-49 -20 186 0
-185 171 0
-186 171 0
185 186 -171 0
173 -187 0
177 -187 0
181 -187 0
184 -187 0
-173 -177 -181 -184 187 0
186 -188 0
-186 188 0
170 -189 0
187 -189 0
-170 -187 189 0
-189 190 0
-171 190 0
189 171 -190 0
21 50 -193 0
-21 50 193 0
21 -50 193 0
-21 -50 -193 0
193 190 -79 0
-193 190 79 0
193 -190 79 0
-193 -190 -79 0
190 -194 0
193 -194 0
-190 -193 194 0
50 -195 0
21 -195 0
-50 -21 195 0
-194 192 0
-195 192 0
194 195 -192 0
22 51 -197 0
-22 51 197 0
22 -51 197 0
-22 -51 -197 0
197 192 -80 0
-197 192 80 0
197 -192 80 0
-197 -192 -80 0
192 -198 0
197 -198 0
-192 -197 198 0
51 -199 0
22 -199 0
-51 -22 199 0
-198 196 0
-199 196 0
198 199 -196 0
23 52 -201 0
-23 52 201 0
23 -52 201 0
-23 -52 -201 0
201 196 -81 0
-201 196 81 0
201 -196 81 0
-201 -196 -81 0
196 -202 0
201 -202 0
-196 -201 202 0
52 -203 0
23 -203 0
-52 -23 203 0
-202 200 0
-203 200 0
202 203 -200 0
24 53 -204 0
-24 53 204 0
24 -53 204 0
-24 -53 -204 0
204 200 -82 0
-204 200 82 0
204 -200 82 0
-204 -200 -82 0
200 -205 0
204 -205 0
-200 -204 205 0
53 -206 0
24 -206 0
-53 -24 206 0
-205 191 0
-206 191 0
205 206 -191 0
193 -207 0
197 -207 0
201 -207 0
204 -207 0
-193 -197 -201 -204 207 0
206 -208 0
-206 208 0
190 -209 0
207 -209 0
-190 -207 209 0
-209 210 0
-191 210 0
209 191 -210 0
25 54 -213 0
-25 54 213 0
25 -54 213 0
-25 -54 -213 0
213 210 -83 0
-213 210 83 0
213 -210 83 0
-213 -210 -83 0
210 -214 0
213 -214 0
-210 -213 214 0
54 -215 0
25 -215 0
-54 -25 215 0
-214 212 0
-215 212 0
214 215 -212 0
26 55 -217 0
-26 55 217 0
26 -55 217 0
-26 -55 -217 0
217 212 -84 0
-217 212 84 0
217 -212 84 0
-217 -212 -84 0
212 -218 0
217 -218 0
-212 -217 218 0
55 -219 0
26 -219 0
-55 -26 219 0
-218 216 0
-219 216 0
218 219 -216 0
27 56 -221 0
-27 56 221 0
27 -56 221 0
-27 -56 -221 0
221 216 -85 0
-221 216 85 0
221 -216 85 0
-221 -216 -85 0
216 -222 0
221 -222 0
-216 -221 222 0
56 -223 0
27 -223 0
-56 -27 223 0
-222 220 0
-223 220 0
222 223 -220 0
28 57 -224 0
-28 57 224 0
28 -57 224 0
-28 -57 -224 0
224 220 -86 0
-224 220 86 0
224 -220 86 0
-224 -220 -86 0
220 -225 0
224 -225 0
-220 -224 225 0
57 -226 0
28 -226 0
-57 -28 226 0
-225 211 0
-226 211 0
225 226 -211 0
213 -227 0
217 -227 0
221 -227 0
224 -227 0
-213 -217 -221 -224 227 0
226 -228 0
-226 228 0
210 -229 0
227 -229 0
-210 -227 229 0
-229 230 0
-211 230 0
229 211 -230 0
29 58 -232 0
-29 58 232 0
29 -58 232 0
-29 -58 -232 0
232 230 -87 0
-232 230 87 0
232 -230 87 0
-232 -230 -87 0
230 -233 0
232 -233 0
-230 -232 233 0
58 -234 0
29 -234 0
-58 -29 234 0
-233 231 0
-234 231 0
233 234 -231 0
232 -235 0
-232 235 0
234 -236 0
-234 236 0
230 -237 0
235 -237 0
-230 -235 237 0
-237 238 0
-231 238 0
237 231 -238 0
238 -88 0
-238 88 0
